Cars = 1..200;
Options = 1..5;
Classes = 1..27;
sequenceMinCapacity = [0, 0, 0, 0, 0];
sequenceMaxCapacity = [1, 2, 1, 2, 1];
sequenceSize = [2, 3, 3, 5, 5];
numOrdered = [11, 9, 36, 20, 2, 21, 9, 4, 7, 9, 2, 10, 3, 4, 2, 7, 3, 1, 6, 12, 3, 5, 1, 2, 2, 1, 8];
classHasOption = [| true, false,  true, false, false
                  | true, false, false,  true, false
                  |false,  true, false, false, false
                  |false,  true, false,  true, false
                  | true, false, false,  true,  true
                  | true,  true, false, false, false
                  |false, false,  true, false, false
                  | true,  true,  true,  true, false
                  |false, false, false, false,  true
                  |false,  true,  true, false, false
                  | true, false,  true, false,  true
                  | true,  true, false,  true, false
                  |false, false,  true, false,  true
                  | true,  true, false, false,  true
                  | true,  true,  true, false,  true
                  |false, false,  true,  true, false
                  | true, false, false, false,  true
                  |false, false, false,  true,  true
                  |false, false, false,  true, false
                  | true, false, false, false, false
                  |false,  true,  true,  true, false
                  | true, false,  true,  true, false
                  |false,  true,  true, false,  true
                  | true,  true, false,  true,  true
                  | true,  true,  true, false, false
                  |false, false,  true, false, false
                  |false,  true, false, false, false|];
optionOrdering = [1, 3, 4, 5, 2];
